p tw 70 9451 2 
1 3 
1 4 
1 5 
1 6 
1 7 
1 8 
1 9 
1 10 
1 11 
1 12 
1 13 
1 14 
1 15 
1 16 
1 17 
1 18 
1 19 
1 20 
1 21 
1 22 
1 23 
1 24 
1 25 
1 26 
1 27 
1 28 
2 3 
2 4 
2 5 
2 6 
2 7 
2 8 
2 9 
2 10 
2 11 
2 18 
2 20 
2 28 
2 29 
2 30 
2 31 
2 32 
2 33 
2 34 
2 35 
2 41 
2 46 
2 49 
2 53 
2 57 
2 58 
2 70 
3 4 
3 5 
3 6 
3 7 
3 8 
3 9 
3 10 
3 12 
3 14 
3 21 
3 23 
3 29 
3 31 
3 36 
3 37 
3 38 
3 39 
3 40 
3 41 
3 42 
3 47 
3 48 
3 49 
3 50 
3 51 
4 5 
4 6 
4 7 
4 8 
4 9 
4 10 
4 13 
4 17 
4 22 
4 25 
4 30 
4 32 
4 36 
4 39 
4 42 
4 43 
4 44 
4 45 
4 46 
4 48 
4 58 
4 59 
4 60 
4 61 
5 6 
5 7 
5 8 
5 9 
5 10 
5 15 
5 16 
5 22 
5 26 
5 31 
5 32 
5 37 
5 40 
5 44 
5 47 
5 52 
5 53 
5 54 
5 55 
5 58 
5 62 
5 63 
5 64 
6 7 
6 8 
6 9 
6 10 
6 16 
6 17 
6 23 
6 24 
6 29 
6 33 
6 38 
6 43 
6 46 
6 48 
6 52 
6 54 
6 56 
6 57 
6 62 
6 67 
6 68 
6 69 
7 8 
7 9 
7 10 
7 18 
7 19 
7 26 
7 27 
7 30 
7 34 
7 38 
7 39 
7 44 
7 47 
7 51 
7 52 
7 59 
7 65 
7 66 
7 67 
7 69 
7 70 
8 9 
8 10 
8 15 
8 19 
8 20 
8 27 
8 33 
8 36 
8 40 
8 45 
8 49 
8 50 
8 53 
8 56 
8 60 
8 61 
8 62 
8 65 
8 66 
8 68 
9 10 
9 11 
9 12 
9 25 
9 28 
9 35 
9 41 
9 42 
9 43 
9 51 
9 54 
9 55 
9 56 
9 60 
9 63 
9 64 
9 65 
9 66 
9 69 
10 13 
10 14 
10 21 
10 24 
10 34 
10 35 
10 37 
10 45 
10 50 
10 55 
10 57 
10 59 
10 61 
10 63 
10 64 
10 67 
10 68 
10 70 
11 12 
11 13 
11 14 
11 15 
11 16 
11 17 
11 18 
11 19 
11 20 
11 25 
11 29 
11 30 
11 31 
11 32 
11 33 
11 34 
11 35 
11 41 
11 42 
11 55 
11 56 
11 63 
11 65 
11 69 
12 13 
12 14 
12 15 
12 16 
12 17 
12 18 
12 19 
12 21 
12 28 
12 29 
12 35 
12 36 
12 37 
12 38 
12 39 
12 40 
12 41 
12 43 
12 51 
12 54 
12 60 
12 64 
12 66 
13 14 
13 15 
13 16 
13 17 
13 18 
13 19 
13 22 
13 24 
13 30 
13 35 
13 36 
13 37 
13 42 
13 43 
13 44 
13 45 
13 46 
13 50 
13 59 
13 63 
13 68 
13 70 
14 15 
14 16 
14 17 
14 18 
14 19 
14 21 
14 23 
14 31 
14 34 
14 42 
14 45 
14 47 
14 48 
14 49 
14 50 
14 51 
14 55 
14 57 
14 61 
14 64 
14 67 
15 16 
15 17 
15 18 
15 19 
15 22 
15 27 
15 32 
15 33 
15 37 
15 40 
15 45 
15 47 
15 49 
15 52 
15 53 
15 54 
15 55 
15 60 
15 65 
15 68 
16 17 
16 18 
16 19 
16 24 
16 26 
16 31 
16 33 
16 38 
16 40 
16 43 
16 44 
16 48 
16 52 
16 56 
16 57 
16 58 
16 62 
16 63 
16 64 
17 18 
17 19 
17 23 
17 25 
17 29 
17 32 
17 39 
17 46 
17 48 
17 54 
17 58 
17 59 
17 60 
17 61 
17 62 
17 67 
17 68 
17 69 
18 19 
18 26 
18 28 
18 30 
18 38 
18 41 
18 46 
18 47 
18 49 
18 53 
18 57 
18 58 
18 59 
18 65 
18 66 
18 67 
18 70 
19 20 
19 27 
19 34 
19 36 
19 39 
19 44 
19 50 
19 51 
19 52 
19 53 
19 56 
19 61 
19 62 
19 66 
19 69 
19 70 
20 21 
20 22 
20 23 
20 24 
20 25 
20 26 
20 27 
20 28 
20 29 
20 30 
20 31 
20 32 
20 33 
20 34 
20 35 
20 36 
20 50 
20 53 
20 56 
20 61 
20 62 
20 66 
21 22 
21 23 
21 24 
21 25 
21 26 
21 27 
21 28 
21 29 
21 34 
21 36 
21 37 
21 38 
21 39 
21 40 
21 41 
21 45 
21 55 
21 57 
21 61 
21 64 
21 67 
22 23 
22 24 
22 25 
22 26 
22 27 
22 28 
22 30 
22 32 
22 36 
22 37 
22 42 
22 43 
22 44 
22 45 
22 46 
22 47 
22 52 
22 53 
22 54 
22 55 
23 24 
23 25 
23 26 
23 27 
23 28 
23 29 
23 31 
23 42 
23 46 
23 47 
23 48 
23 49 
23 50 
23 51 
23 54 
23 62 
23 67 
23 68 
23 69 
24 25 
24 26 
24 27 
24 28 
24 33 
24 35 
24 37 
24 38 
24 43 
24 48 
24 50 
24 52 
24 56 
24 57 
24 59 
24 63 
24 68 
24 70 
25 26 
25 27 
25 28 
25 32 
25 39 
25 41 
25 42 
25 48 
25 55 
25 56 
25 58 
25 59 
25 60 
25 61 
25 63 
25 65 
25 69 
26 27 
26 28 
26 30 
26 31 
26 38 
26 40 
26 44 
26 47 
26 58 
26 59 
26 62 
26 63 
26 64 
26 65 
26 66 
26 67 
27 28 
27 33 
27 34 
27 39 
27 40 
27 44 
27 45 
27 49 
27 51 
27 52 
27 60 
27 65 
27 68 
27 69 
27 70 
28 35 
28 41 
28 43 
28 46 
28 49 
28 51 
28 53 
28 54 
28 57 
28 58 
28 60 
28 64 
28 66 
28 70 
29 30 
29 31 
29 32 
29 33 
29 34 
29 35 
29 36 
29 37 
29 38 
29 39 
29 40 
29 41 
29 46 
29 54 
29 62 
29 67 
29 68 
29 69 
30 31 
30 32 
30 33 
30 34 
30 35 
30 36 
30 38 
30 42 
30 43 
30 44 
30 45 
30 46 
30 47 
30 59 
30 65 
30 66 
30 67 
31 32 
31 33 
31 34 
31 35 
31 40 
31 42 
31 44 
31 47 
31 48 
31 49 
31 50 
31 51 
31 58 
31 62 
31 63 
31 64 
32 33 
32 34 
32 35 
32 37 
32 39 
32 47 
32 48 
32 52 
32 53 
32 54 
32 55 
32 58 
32 59 
32 60 
32 61 
33 34 
33 35 
33 38 
33 40 
33 43 
33 45 
33 48 
33 49 
33 52 
33 56 
33 57 
33 60 
33 65 
33 68 
34 35 
34 39 
34 44 
34 45 
34 51 
34 52 
34 55 
34 57 
34 61 
34 64 
34 67 
34 69 
34 70 
35 37 
35 43 
35 50 
35 51 
35 54 
35 59 
35 60 
35 63 
35 64 
35 66 
35 68 
35 70 
36 37 
36 38 
36 39 
36 40 
36 41 
36 42 
36 43 
36 44 
36 45 
36 46 
36 50 
36 53 
36 56 
36 61 
36 62 
36 66 
37 38 
37 39 
37 40 
37 41 
37 47 
37 50 
37 52 
37 53 
37 54 
37 55 
37 59 
37 63 
37 68 
37 70 
38 39 
38 40 
38 41 
38 43 
38 47 
38 48 
38 52 
38 56 
38 57 
38 59 
38 65 
38 66 
38 67 
39 40 
39 41 
39 44 
39 48 
39 51 
39 52 
39 58 
39 59 
39 60 
39 61 
39 69 
39 70 
40 41 
40 44 
40 45 
40 49 
40 58 
40 60 
40 62 
40 63 
40 64 
40 65 
40 68 
41 42 
41 46 
41 49 
41 53 
41 55 
41 56 
41 57 
41 58 
41 63 
41 65 
41 69 
41 70 
42 43 
42 44 
42 45 
42 46 
42 47 
42 48 
42 49 
42 50 
42 51 
42 55 
42 56 
42 63 
42 65 
42 69 
43 44 
43 45 
43 46 
43 48 
43 51 
43 52 
43 54 
43 56 
43 57 
43 60 
43 64 
43 66 
44 45 
44 46 
44 51 
44 52 
44 58 
44 62 
44 63 
44 64 
44 69 
44 70 
45 46 
45 49 
45 55 
45 57 
45 60 
45 61 
45 64 
45 65 
45 67 
45 68 
46 49 
46 53 
46 54 
46 57 
46 58 
46 62 
46 67 
46 68 
46 69 
46 70 
47 48 
47 49 
47 50 
47 51 
47 52 
47 53 
47 54 
47 55 
47 59 
47 65 
47 66 
47 67 
48 49 
48 50 
48 51 
48 52 
48 56 
48 57 
48 58 
48 59 
48 60 
48 61 
49 50 
49 51 
49 53 
49 57 
49 58 
49 60 
49 65 
49 68 
49 70 
50 51 
50 53 
50 56 
50 59 
50 61 
50 62 
50 63 
50 66 
50 68 
50 70 
51 52 
51 54 
51 60 
51 64 
51 66 
51 69 
51 70 
52 53 
52 54 
52 55 
52 56 
52 57 
52 69 
52 70 
53 54 
53 55 
53 56 
53 57 
53 58 
53 61 
53 62 
53 66 
53 70 
54 55 
54 60 
54 62 
54 64 
54 66 
54 67 
54 68 
54 69 
55 56 
55 57 
55 61 
55 63 
55 64 
55 65 
55 67 
55 69 
56 57 
56 61 
56 62 
56 63 
56 65 
56 66 
56 69 
57 58 
57 61 
57 64 
57 67 
57 70 
58 59 
58 60 
58 61 
58 62 
58 63 
58 64 
58 70 
59 60 
59 61 
59 63 
59 65 
59 66 
59 67 
59 68 
59 70 
60 61 
60 64 
60 65 
60 66 
60 68 
61 62 
61 64 
61 66 
61 67 
62 63 
62 64 
62 66 
62 67 
62 68 
62 69 
63 64 
63 65 
63 68 
63 69 
63 70 
64 66 
64 67 
65 66 
65 67 
65 68 
65 69 
66 67 
67 68 
67 69 
68 69 
68 70 
69 70 
